Gurobi Optimizer version 9.1.2 build v9.1.2rc0 (linux64)
Thread count: 36 physical cores, 72 logical processors, using up to 32 threads
Optimize a model with 12 rows, 57 columns and 590 nonzeros
Model fingerprint: 0xf32eec78
Model has 47 quadratic constraints
Coefficient statistics:
  Matrix range     [2e-05, 3e+00]
  QMatrix range    [1e+00, 1e+00]
  QLMatrix range   [1e+00, 1e+00]
  Objective range  [8e-03, 7e-01]
  Bounds range     [1e+00, 1e+00]
  RHS range        [1e+00, 1e+00]
Presolve removed 9 rows and 0 columns

Continuous model is non-convex -- solving as a MIP.

Presolve removed 9 rows and 0 columns
Presolve time: 0.00s
Presolved: 189 rows, 57 columns, 443 nonzeros
Presolved model has 47 bilinear constraint(s)
Variable types: 57 continuous, 0 integer (0 binary)

Root relaxation: objective -1.743721e+00, 44 iterations, 0.00 seconds

    Nodes    |    Current Node    |     Objective Bounds      |     Work
 Expl Unexpl |  Obj  Depth IntInf | Incumbent    BestBd   Gap | It/Node Time

     0     0   -1.74372    0   38          -   -1.74372      -     -    0s
H    0     0                       0.6147548   -1.74372   384%     -    0s
     0     0   -1.64739    0    1    0.61475   -1.64739   368%     -    0s
H    0     0                      -1.6450460   -1.64739  0.14%     -    0s
     0     0     cutoff    0        -1.64505   -1.64505  0.00%     -    0s

Cutting planes:
  RLT: 25
  BQP: 3

Explored 1 nodes (76 simplex iterations) in 0.01 seconds
Thread count was 32 (of 72 available processors)

Solution count 2: -1.64505 0.614755 
No other solutions better than -1.64505

Optimal solution found (tolerance 1.00e-04)
Best objective -1.645045978473e+00, best bound -1.645045978473e+00, gap 0.0000%

User-callback calls 78, time in user-callback 0.00 sec
Gurobi Optimizer version 9.1.2 build v9.1.2rc0 (linux64)
Thread count: 36 physical cores, 72 logical processors, using up to 32 threads
Optimize a model with 60 rows, 312 columns and 16100 nonzeros
Model fingerprint: 0xa714c6a4
Model has 262 quadratic constraints
Coefficient statistics:
  Matrix range     [4e-07, 7e+00]
  QMatrix range    [1e+00, 1e+00]
  QLMatrix range   [1e+00, 1e+00]
  Objective range  [4e-03, 1e+00]
  Bounds range     [1e+00, 1e+00]
  RHS range        [1e+00, 1e+00]
Presolve removed 14 rows and 0 columns

Continuous model is non-convex -- solving as a MIP.

Presolve removed 14 rows and 0 columns
Presolve time: 0.01s
Presolved: 1082 rows, 312 columns, 13759 nonzeros
Presolved model has 262 bilinear constraint(s)
Variable types: 312 continuous, 0 integer (0 binary)

Root relaxation: objective -2.483213e+01, 327 iterations, 0.02 seconds

    Nodes    |    Current Node    |     Objective Bounds      |     Work
 Expl Unexpl |  Obj  Depth IntInf | Incumbent    BestBd   Gap | It/Node Time

     0     0  -24.83213    0   89          -  -24.83213      -     -    0s
     0     0  -23.80510    0   62          -  -23.80510      -     -    0s
     0     0  -23.75599    0   59          -  -23.75599      -     -    0s
     0     0  -23.67184    0   67          -  -23.67184      -     -    0s
     0     0  -23.67158    0   67          -  -23.67158      -     -    0s
     0     0  -23.66650    0   63          -  -23.66650      -     -    0s
     0     0  -23.66629    0   60          -  -23.66629      -     -    0s
     0     0  -23.66571    0   67          -  -23.66571      -     -    0s
     0     0  -23.66464    0   73          -  -23.66464      -     -    0s
     0     0  -23.66341    0   67          -  -23.66341      -     -    0s
     0     0  -23.66290    0   74          -  -23.66290      -     -    0s
     0     0  -23.66284    0   67          -  -23.66284      -     -    0s
     0     0  -23.66273    0   67          -  -23.66273      -     -    0s
     0     0  -23.66256    0   67          -  -23.66256      -     -    0s
     0     0  -23.66256    0   67          -  -23.66256      -     -    0s
     0     2  -23.66256    0   67          -  -23.66256      -     -    0s
* 1867  1960              46     -22.6882377  -23.06745  1.67%  38.1    1s
* 2737  1842              63     -22.6918855  -22.95668  1.17%  36.8    1s
* 2838  1828              64     -22.6922173  -22.95668  1.17%  36.7    1s
* 2839  1828              64     -22.6922262  -22.95668  1.17%  36.7    1s
* 4867  1879              47     -22.6925417  -22.95668  1.16%  32.2    2s
* 5071  1907              65     -22.6926583  -22.95668  1.16%  31.6    2s
* 5347  1916              51     -22.6926658  -22.95668  1.16%  30.8    2s
* 5348  1916              51     -22.6926669  -22.95668  1.16%  30.8    2s
* 5349  1916              50     -22.6927551  -22.95668  1.16%  30.8    2s
* 5352  1916              50     -22.6927656  -22.95668  1.16%  30.8    2s
* 8594  1228              62     -22.6938025  -22.95668  1.16%  33.3    4s
* 8755  1110              58     -22.6943854  -22.95668  1.16%  33.1    4s
* 8756  1034              58     -22.6943875  -22.95668  1.16%  33.1    4s
* 8759   961              58     -22.6943885  -22.95668  1.16%  33.1    4s
* 9019   827              72     -22.6950150  -22.95668  1.15%  33.1    4s
* 9188   750              60     -22.7162245  -22.95668  1.06%  33.1    4s
* 9237   746              62     -22.7163280  -22.95668  1.06%  33.1    4s
* 9369   746              62     -22.7163334  -22.95668  1.06%  33.0    4s
 10268   844  -22.95668   25   32  -22.71633  -22.95668  1.06%  32.7    5s
*11084   891              52     -22.7167282  -22.95668  1.06%  32.1    5s
*11085   891              52     -22.7167304  -22.95668  1.06%  32.1    5s
*11087   891              51     -22.7173444  -22.95668  1.05%  32.1    5s
*11167   899              55     -22.7178889  -22.95668  1.05%  32.1    5s
*11168   899              55     -22.7178932  -22.95668  1.05%  32.1    5s
*11814   894              53     -22.7179902  -22.95668  1.05%  31.7    5s
*11818   894              55     -22.7180248  -22.95668  1.05%  31.7    5s
*11820   894              56     -22.7180418  -22.95668  1.05%  31.7    5s
*11821   894              56     -22.7180492  -22.95668  1.05%  31.7    5s
*13737   929              54     -22.7181131  -22.95499  1.04%  30.4    5s
*14104   961              62     -22.7181367  -22.92817  0.92%  30.2    5s
*14105   961              62     -22.7181499  -22.92817  0.92%  30.2    5s
*14112   961              62     -22.7181510  -22.92817  0.92%  30.1    5s
*14448   993              57     -22.7182179  -22.92455  0.91%  29.9    5s
*14452   993              58     -22.7182185  -22.92455  0.91%  29.9    5s
*14506   993              55     -22.7182186  -22.92455  0.91%  29.9    5s
*14507   993              55     -22.7183143  -22.92455  0.91%  29.9    5s
*14512   993              57     -22.7183802  -22.92455  0.91%  29.9    5s
*14514   993              57     -22.7183809  -22.92455  0.91%  29.9    5s
*14516   993              55     -22.7184591  -22.92455  0.91%  29.9    5s
*15476  1061              63     -22.7185765  -22.85421  0.60%  29.0    6s
*15477  1061              63     -22.7185785  -22.85421  0.60%  29.0    6s
*15503  1061              63     -22.7187212  -22.85421  0.60%  29.0    6s
*15506  1061              63     -22.7187245  -22.85421  0.60%  29.0    6s
*15800  1061              57     -22.7187383  -22.85421  0.60%  28.7    6s
*15808  1061              59     -22.7187526  -22.85421  0.60%  28.7    6s
*16060  1176              74     -22.7204616  -22.76062  0.18%  28.6    6s
*16283  1176              64     -22.7209324  -22.76062  0.17%  28.3    6s
*16777  1167              66     -22.7216173  -22.76062  0.17%  27.9    6s
*16778  1167              67     -22.7216199  -22.76062  0.17%  27.9    6s
*17183  1158              61     -22.7216704  -22.74236  0.09%  27.6    6s
*17798  1233              62     -22.7216753  -22.74236  0.09%  27.0    6s
*17801  1233              61     -22.7216778  -22.74236  0.09%  27.0    6s
*17803  1233              62     -22.7216784  -22.74236  0.09%  27.0    6s
*18409  1365              60     -22.7218614  -22.74236  0.09%  26.5    6s
*18415  1365              61     -22.7218800  -22.74236  0.09%  26.4    6s
*19065  1537              66     -22.7227277  -22.74236  0.09%  25.9    6s
*19068  1537              64     -22.7228581  -22.74236  0.09%  25.9    6s
*19924  1651              59     -22.7230426  -22.74236  0.08%  25.1    6s
*19925  1651              60     -22.7230482  -22.74236  0.08%  25.1    6s
*20176  1651              58     -22.7230658  -22.74236  0.08%  24.9    6s
*20415  1651              66     -22.7232849  -22.74236  0.08%  24.7    6s
*20591  1736              68     -22.7235206  -22.74069  0.08%  24.5    6s
*22627  1706              67     -22.7236292  -22.72690  0.01%  23.0    7s

Explored 24103 nodes (531367 simplex iterations) in 7.36 seconds
Thread count was 32 (of 72 available processors)

Solution count 10: -22.7236 -22.7235 -22.7233 ... -22.7219

Optimal solution found (tolerance 1.00e-04)
Best objective -2.272362918612e+01, best bound -2.272535404075e+01, gap 0.0076%

User-callback calls 49266, time in user-callback 0.01 sec



objective value: -22.72362918611811
objective bound: -22.72535404074608
x_opt: [1.0, 0.806711384965961, 0.0, 0.12229200455344784, 0.0, 0.0, 1.0, 0.0, 0.0, 0.0, 1.0, 0.0, 1.0, 1.0, 0.2818415005150822, 1.0, 0.0, 1.0, 0.0, 0.0, 0.0, 0.45873729754076553, 0.0, 0.5915126002594149, 0.0, 0.7340491093712028, 0.0, 1.0, 0.0, 0.0, 1.0, 1.0, 0.0, 0.5859311739958069, 1.0, 0.9162602932416459, 0.0, 1.0, 0.0, 1.0, 1.0, 0.0, 1.0, 0.026205366509002116, 0.01999763026688753, 0.0, 0.5186409807873716, 0.3915509721704056, 0.3360587984552862, 0.0]
GUROBI solution time: 7.35866904258728




